10	5
0	4	4	2	3	1
1	2	7	5
2	1	6
3	1	6
4	2	5	7
5	1	8
6	0
7	1	8
8	1	6
9	1	10
10	1	11
11	0
0	0	0	0	0	0	0
1	8	1	4	3	1	3
2	6	1	1	3	2	5
3	6	4	4	3	2	5
4	9	4	1	1	3	4
5	5	5	2	4	2	3
6	3	5	1	2	4	4
7	9	1	5	3	5	1
8	8	5	3	2	2	4
9	1	3	5	4	2	5
10	8	1	3	3	1	2
11	0	0	0	0	0	0
7	7	6	6	9
